c SAT instance in DIMACS CNF input format.
p cnf 10 20
-4 -6 10 0
-7 8 -10 0
2 5 10 0
3 -6 9 0
-2 -3 -10 0
2 -4 8 0
-5 -7 -9 0
-6 8 10 0
-1 3 -9 0
-3 6 -9 0
-6 -8 -10 0
4 5 8 0
1 -6 -8 0
4 8 10 0
-2 -3 9 0
-1 -3 -9 0
-5 -8 -10 0
-3 5 8 0
-2 -3 -7 0
-1 -3 -9 0
31 24 44 27 20 42 14 14 47 10 